NAME /Users/henri/Research/solvers/instances/idol-instances/robust/collection/cbp_Subramanyam_et_al_2020/CapBud_N20_2/models/uncertain_technology_matrix/
ROWS
 N  OBJ
 L  capacity
 L  c_2275
 L  c_2276
 L  c_2277
 L  c_2278
 L  c_2279
 L  c_2280
 L  c_2281
 L  c_2282
 L  c_2283
 L  c_2284
 L  c_2285
 L  c_2286
 L  c_2287
 L  c_2288
 L  c_2289
 L  c_2290
 L  c_2291
 L  c_2292
 L  c_2293
 L  c_2294
COLUMNS
    MARKER    'MARKER'                 'INTORG'
    x_0        OBJ        8.79242
    x_0        c_2275     1
    x_0        capacity   1.75848
    x_1        OBJ        5.75324
    x_1        c_2276     1
    x_1        capacity   1.15065
    x_2        OBJ        1.10138
    x_2        c_2277     1
    x_2        capacity   0.220277
    x_3        OBJ        8.7944
    x_3        c_2278     1
    x_3        capacity   1.75888
    x_4        OBJ        7.22768
    x_4        c_2279     1
    x_4        capacity   1.44554
    x_5        OBJ        3.0756
    x_5        c_2280     1
    x_5        capacity   0.615121
    x_6        OBJ        7.55378
    x_6        c_2281     1
    x_6        capacity   1.51076
    x_7        OBJ        3.93177
    x_7        c_2282     1
    x_7        capacity   0.786354
    x_8        OBJ        8.61039
    x_8        c_2283     1
    x_8        capacity   1.72208
    x_9        OBJ        4.95597
    x_9        c_2284     1
    x_9        capacity   0.991193
    x_10       OBJ        6.05759
    x_10       c_2285     1
    x_10       capacity   1.21152
    x_11       OBJ        0.737128
    x_11       c_2286     1
    x_11       capacity   0.147426
    x_12       OBJ        8.33587
    x_12       c_2287     1
    x_12       capacity   1.66717
    x_13       OBJ        4.91669
    x_13       c_2288     1
    x_13       capacity   0.983338
    x_14       OBJ        1.38262
    x_14       c_2289     1
    x_14       capacity   0.276524
    x_15       OBJ        0.498925
    x_15       c_2290     1
    x_15       capacity   0.0997849
    x_16       OBJ        3.61989
    x_16       c_2291     1
    x_16       capacity   0.723978
    x_17       OBJ        9.66945
    x_17       c_2292     1
    x_17       capacity   1.93389
    x_18       OBJ        8.38583
    x_18       c_2293     1
    x_18       capacity   1.67717
    x_19       OBJ        6.12386
    x_19       c_2294     1
    x_19       capacity   1.22477
    y_0        OBJ        7.03394
    y_0        c_2275     1
    y_0        capacity   1.75848
    y_1        OBJ        4.60259
    y_1        c_2276     1
    y_1        capacity   1.15065
    y_2        OBJ        0.881107
    y_2        c_2277     1
    y_2        capacity   0.220277
    y_3        OBJ        7.03552
    y_3        c_2278     1
    y_3        capacity   1.75888
    y_4        OBJ        5.78215
    y_4        c_2279     1
    y_4        capacity   1.44554
    y_5        OBJ        2.46048
    y_5        c_2280     1
    y_5        capacity   0.615121
    y_6        OBJ        6.04302
    y_6        c_2281     1
    y_6        capacity   1.51076
    y_7        OBJ        3.14541
    y_7        c_2282     1
    y_7        capacity   0.786354
    y_8        OBJ        6.88831
    y_8        c_2283     1
    y_8        capacity   1.72208
    y_9        OBJ        3.96477
    y_9        c_2284     1
    y_9        capacity   0.991193
    y_10       OBJ        4.84607
    y_10       c_2285     1
    y_10       capacity   1.21152
    y_11       OBJ        0.589702
    y_11       c_2286     1
    y_11       capacity   0.147426
    y_12       OBJ        6.6687
    y_12       c_2287     1
    y_12       capacity   1.66717
    y_13       OBJ        3.93335
    y_13       c_2288     1
    y_13       capacity   0.983338
    y_14       OBJ        1.10609
    y_14       c_2289     1
    y_14       capacity   0.276524
    y_15       OBJ        0.39914
    y_15       c_2290     1
    y_15       capacity   0.0997849
    y_16       OBJ        2.89591
    y_16       c_2291     1
    y_16       capacity   0.723978
    y_17       OBJ        7.73556
    y_17       c_2292     1
    y_17       capacity   1.93389
    y_18       OBJ        6.70866
    y_18       c_2293     1
    y_18       capacity   1.67717
    y_19       OBJ        4.89909
    y_19       c_2294     1
    y_19       capacity   1.22477
    MARKER    'MARKER'                 'INTEND'
RHS
    RHS       capacity   54.7622
    RHS       c_2275     1
    RHS       c_2276     1
    RHS       c_2277     1
    RHS       c_2278     1
    RHS       c_2279     1
    RHS       c_2280     1
    RHS       c_2281     1
    RHS       c_2282     1
    RHS       c_2283     1
    RHS       c_2284     1
    RHS       c_2285     1
    RHS       c_2286     1
    RHS       c_2287     1
    RHS       c_2288     1
    RHS       c_2289     1
    RHS       c_2290     1
    RHS       c_2291     1
    RHS       c_2292     1
    RHS       c_2293     1
    RHS       c_2294     1
BOUNDS
 LI BND       x_0        0
 UI BND       x_0        1
 LI BND       x_1        0
 UI BND       x_1        1
 LI BND       x_2        0
 UI BND       x_2        1
 LI BND       x_3        0
 UI BND       x_3        1
 LI BND       x_4        0
 UI BND       x_4        1
 LI BND       x_5        0
 UI BND       x_5        1
 LI BND       x_6        0
 UI BND       x_6        1
 LI BND       x_7        0
 UI BND       x_7        1
 LI BND       x_8        0
 UI BND       x_8        1
 LI BND       x_9        0
 UI BND       x_9        1
 LI BND       x_10       0
 UI BND       x_10       1
 LI BND       x_11       0
 UI BND       x_11       1
 LI BND       x_12       0
 UI BND       x_12       1
 LI BND       x_13       0
 UI BND       x_13       1
 LI BND       x_14       0
 UI BND       x_14       1
 LI BND       x_15       0
 UI BND       x_15       1
 LI BND       x_16       0
 UI BND       x_16       1
 LI BND       x_17       0
 UI BND       x_17       1
 LI BND       x_18       0
 UI BND       x_18       1
 LI BND       x_19       0
 UI BND       x_19       1
 LI BND       y_0        0
 UI BND       y_0        1
 LI BND       y_1        0
 UI BND       y_1        1
 LI BND       y_2        0
 UI BND       y_2        1
 LI BND       y_3        0
 UI BND       y_3        1
 LI BND       y_4        0
 UI BND       y_4        1
 LI BND       y_5        0
 UI BND       y_5        1
 LI BND       y_6        0
 UI BND       y_6        1
 LI BND       y_7        0
 UI BND       y_7        1
 LI BND       y_8        0
 UI BND       y_8        1
 LI BND       y_9        0
 UI BND       y_9        1
 LI BND       y_10       0
 UI BND       y_10       1
 LI BND       y_11       0
 UI BND       y_11       1
 LI BND       y_12       0
 UI BND       y_12       1
 LI BND       y_13       0
 UI BND       y_13       1
 LI BND       y_14       0
 UI BND       y_14       1
 LI BND       y_15       0
 UI BND       y_15       1
 LI BND       y_16       0
 UI BND       y_16       1
 LI BND       y_17       0
 UI BND       y_17       1
 LI BND       y_18       0
 UI BND       y_18       1
 LI BND       y_19       0
 UI BND       y_19       1
ENDATA
